
# Crystalline AlAs: computation of the intrinsic mobility

# General input for e-ph computations
optdriver 7   # Enter e-ph code
eph_task 20   # Compute only the imaginary part of the self-energy
occopt 3      # Fermi-Dirac occupation function
              # This corresponds to the physical temperature for electrons

# Definition of the meshes
kptopt 3
ngkpt  4 4 4 # k-mesh used to generate the WFK
nshiftk 1
shiftk 0.0 0.0 0.0

ddb_ngqpt 4 4 4          # q-mesh used for the phonons (from DDB)

eph_ngqpt_fine 4 4 4  # Interpolate e-ph matrix elements in q-space
                         # on the same mesh as the k-grid

eph_use_ftinterp 1

getwfk_filepath "AlAs_2o_DS3_WFK"  # Read the dense WFK file
getddb_filepath "AlAs_ddb"       # We need the DDB and DVDB
getdvdb_filepath "AlAs_dvdb"


#######################################################################
# Common input variables

# Definition of the planewave basis set
ecut 3
nband 8

# Definition of the unit cell
    acell   3*10.61         # This is equivalent to   10.61 10.61 10.61
    rprim   0.0  0.5  0.5   # In tutorials 1 and 2, these primitive vectors
            0.5  0.0  0.5   # (to be scaled by acell) were 1 0 0  0 1 0  0 0 1
            0.5  0.5  0.0   # that is, the default.

# Definition of the atom types
   ntypat   2         # There are two types of atom
    znucl   13 33     # The keyword "znucl" refers to the atomic number of the
                      # possible type(s) of atom. The pseudopotential(s)
                      # mentioned in the "files" file must correspond
                      # to the type(s) of atom. Here, type 1 is the Aluminum,
                      # type 2 is the Arsenic.

# Definition of the atoms
    natom   2         # There are two atoms
    typat   1 2       # The first is of type 1 (Al), the second is of type 2 (As).

     xred   0.0  0.0  0.0
            0.25 0.25 0.25

 pp_dirpath "$ABI_PSPDIR"
 pseudos "13al.981214.fhi, PseudosTM_pwteter/33as.pspnc"

prtphbands 1
ph_nqpath 5
ph_qpath 0.0 0.0 0.0 # Gamma
         1/2 0.0 1/2  # X
         1/2 1/4 3/4  # W
         3/8 3/8 3/4  # K
         0.0 0.0 0.0  # Gamma

#%%<BEGIN TEST_INFO>
#%% [setup]
#%% executable = abinit
#%% test_chain =  teph4mob_1.in, teph4mob_2.in, teph4mob_3.in, teph4mob_4.in, teph4mob_5.in, teph4mob_6.in, teph4mob_7.in
#%% [files]
#%% files_to_test =
#%%   teph4mob_5.out, tolnlines= 80, tolabs=  600, tolrel=  6.000e-03
#%% [paral_info]
#%% max_nprocs = 4
#%% [extra_info]
#%% authors = G. Brunin, M. Giantomassi
#%% keywords = NC, DFPT, EPH, RTA
#%% description =
#%%   E-ph for mobility in semiconductors
#%%<END TEST_INFO>
