
# Prepare the computation of linear and non-linear optic properties
# of GaAs crystal : ground-state with few bands,
# then non-SCF with a larger number of bands, then ddk for different directions
# Note that the k point sampling shoud be finer for significant results. The cut-off energy is also too low.

 ndtset 3

 nspinor 1
#First dataset : SC run with kpoints in the IBZ
  nband1  12   
  nstep1 25   
 kptopt1 1
 nbdbuf1 0
 prtden1 1   getden1 0   getwfk1 0    # Usual file handling data

 nshiftk1 1
 shiftk1 0.0 0.0 0.0
 ngkpt1 8 8 8 

#Second dataset : NSC run with large number of bands, and points in the IBZ
    iscf2 -2  
   nstep2 25
  kptopt2  1
  getwfk2  1   getden2 1   # Usual file handling data

#Third dataset : NSC run with large number of bands, and points in the full BZ 
    iscf3 -2  
   nstep3 25 
  getwfk3  2   getden3 1   # Usual file handling data

iscf4    -2
getden4  1
kptopt4  -3  # will have three segments in the band structure
nband4   8
ndivsm4   10   # 10 divisions of the smallest of the 3 segments, delimited
                       # by the 4 points defined by kptbounds.
kptbounds4  0.5  0.0  0.0 # L point
            0.0  0.0  0.0 # Gamma point
            0.0  0.5  0.5 # X point
            1.0  1.0  1.0 # Gamma point in another cell.
tolwfr4  1.0d-12
enunit4  1         
# Data common to datasets 2-6
  nband  6     # This number of bands might be too low for non-linear optics and real part of linear optics

# Data common to datasets 3-6
 kptopt   1      # Need points in the full BZ for non-linear optical properties

 kptopt5 3
 iscf5 -2
 nstep5 25
 getwfk5 2
 getden5 1

# Data common to datasets 4-6
  getwfk  3

#Data common to all datasets
 nshiftk 1
 shiftk  0.0 0.0 0.0
 ngkpt 24 24 24       # This is much too low : should be at least 24x24x24
   qpt  0.0 0.0 0.0     # Not really needed, because it is the defaults, but mentioned here to keep track of its importance for datasets 4-6

 acell   3*10.60
 amu 69.72  74.9216
 diemac 12.0
 ecut 15.00             # This is also too low
 ixc 1
 natom  2  nbdbuf 2
 ntypat  2
 rprim   0 .5 .5  .5 0 .5  .5 .5 0
 xred 3*0.00d0 3*0.25d0
 tnons 72*0.0
 typat  1 2  tolwfr  1.e-20
 znucl  31 33

 pp_dirpath "$ABI_PSPDIR"
 #pseudos "Ga.psp8, As.psp8" 
 #pseudos "PseudosHGH_pwteter/31ga.3.hgh,PseudosHGH_pwteter/33as.5.hgh" 
 pseudos "PseudosTM_pwteter/31ga.pspnc,PseudosTM_pwteter/33as.pspnc" 

#%%<BEGIN TEST_INFO>
#%% [setup]
#%% executable = abinit
#%% test_chain = toptic_1.in, toptic_2.in
#%% need_cpp_vars = !HAVE_MPI_IO_DEFAULT
#%% [files]
#%% files_to_test = 
#%%   toptic_1.out, tolnlines=  0, tolabs=  0.000e+00, tolrel=  0.000e+00, fld_options = -easy
#%% psp_files =  31ga.pspnc, 33as.pspnc
#%% [paral_info]
#%% max_nprocs = 2
#%% [extra_info]
#%% authors = S. Sharma, X. Gonze
#%% keywords = NC, DFPT
#%% description = 
#%%  Prepare the computation of linear and non-linear optic properties
#%%  of GaAs crystal : ground-state with few bands,
#%%  then non-SCF with a larger number of bands, then ddk for different directions
#%%  Note that the k point sampling shoud be finer for significant results. The cut-off energy is also too low.
#%%<END TEST_INFO>


